120
150
64
66
97
40
66
64
59
80
49
100
100
45
48
100
53
82
46
97
65
85
33
70
34
84
63
33
68
41
53
97
91
53
97
33
42
39
55
35
97
65
74
74
67
45
90
60
35
45
31
99
35
87
49
84
67
44
34
52
70
55
43
32
56
46
46
68
74
58
53
31
85
65
93
31
61
87
78
51
87
42
70
81
66
55
46
49
78
67
84
33
49
34
67
65
64
58
93
31
65
85
49
100
67
91
59
97
29
97
84
55
49
100
99
59
91
89
66
84
86
97
